0	246	358
1	1	13	35
0	2	25	3
0	3	15	5
0	4	31	10
0	5	82	20
1	6	13	16
0	7	89	8
0	8	67	29
1	9	23	27
1	10	7	46
1	11	10	15
0	12	51	10
1	13	5	6
0	14	51	6
0	15	82	71
1	16	32	35
0	17	71	43
1	18	15	25
0	19	43	10
1	20	100	100
0	21	38	35
1	22	23	33
0	23	65	15
0	24	35	20
1	25	5	20
